NAME          BLANK   
ROWS
 N  OBJROW
 L  R0000000
COLUMNS
    C0000000  OBJROW     -293.         R0000000  260.        
    C0000001  OBJROW     -679.         R0000000  762.        
    C0000002  OBJROW     -662.         R0000000  841.        
    C0000003  OBJROW     -964.         R0000000  464.        
    C0000004  OBJROW     -216.         R0000000  530.        
    C0000005  OBJROW     -432.         R0000000  885.        
    C0000006  OBJROW     -882.         R0000000  534.        
    C0000007  OBJROW     -602.         R0000000  584.        
    C0000008  OBJROW     -600.         R0000000  482.        
    C0000009  OBJROW     -442.         R0000000  119.        
RHS
    RHS       R0000000  15314.      
BOUNDS
 BV BOUND     C0000000  1.          
 BV BOUND     C0000001  1.          
 BV BOUND     C0000002  1.          
 BV BOUND     C0000003  1.          
 BV BOUND     C0000004  1.          
 BV BOUND     C0000005  1.          
 BV BOUND     C0000006  1.          
 BV BOUND     C0000007  1.          
 BV BOUND     C0000008  1.          
 BV BOUND     C0000009  1.          
ENDATA
